p cnf 238 2554
-1 -148 0
-2 -149 0
-3 -150 0
-4 -151 0
-5 -152 0
-6 -153 0
-7 -154 0
-1 -211 0
-2 -212 0
-3 -213 0
-4 -214 0
-5 -215 0
-6 -216 0
-7 -217 0
-1 -43 0
-2 -44 0
-3 -45 0
-4 -46 0
-5 -47 0
-6 -48 0
-7 -49 0
-1 -232 0
-2 -233 0
-3 -234 0
-4 -235 0
-5 -236 0
-6 -237 0
-7 -238 0
-1 -92 0
-2 -93 0
-3 -94 0
-4 -95 0
-5 -96 0
-6 -97 0
-7 -98 0
-1 -183 0
-2 -184 0
-3 -185 0
-4 -186 0
-5 -187 0
-6 -188 0
-7 -189 0
-1 -106 0
-2 -107 0
-3 -108 0
-4 -109 0
-5 -110 0
-6 -111 0
-7 -112 0
-1 -169 0
-2 -170 0
-3 -171 0
-4 -172 0
-5 -173 0
-6 -174 0
-7 -175 0
-1 -190 0
-2 -191 0
-3 -192 0
-4 -193 0
-5 -194 0
-6 -195 0
-7 -196 0
-1 -15 0
-2 -16 0
-3 -17 0
-4 -18 0
-5 -19 0
-6 -20 0
-7 -21 0
-1 -99 0
-2 -100 0
-3 -101 0
-4 -102 0
-5 -103 0
-6 -104 0
-7 -105 0
-1 -113 0
-2 -114 0
-3 -115 0
-4 -116 0
-5 -117 0
-6 -118 0
-7 -119 0
-1 -141 0
-2 -142 0
-3 -143 0
-4 -144 0
-5 -145 0
-6 -146 0
-7 -147 0
-1 -8 0
-2 -9 0
-3 -10 0
-4 -11 0
-5 -12 0
-6 -13 0
-7 -14 0
-1 -197 0
-2 -198 0
-3 -199 0
-4 -200 0
-5 -201 0
-6 -202 0
-7 -203 0
-8 -92 0
-9 -93 0
-10 -94 0
-11 -95 0
-12 -96 0
-13 -97 0
-14 -98 0
-8 -183 0
-9 -184 0
-10 -185 0
-11 -186 0
-12 -187 0
-13 -188 0
-14 -189 0
-8 -64 0
-9 -65 0
-10 -66 0
-11 -67 0
-12 -68 0
-13 -69 0
-14 -70 0
-8 -162 0
-9 -163 0
-10 -164 0
-11 -165 0
-12 -166 0
-13 -167 0
-14 -168 0
-8 -155 0
-9 -156 0
-10 -157 0
-11 -158 0
-12 -159 0
-13 -160 0
-14 -161 0
-8 -225 0
-9 -226 0
-10 -227 0
-11 -228 0
-12 -229 0
-13 -230 0
-14 -231 0
-8 -57 0
-9 -58 0
-10 -59 0
-11 -60 0
-12 -61 0
-13 -62 0
-14 -63 0
-8 -169 0
-9 -170 0
-10 -171 0
-11 -172 0
-12 -173 0
-13 -174 0
-14 -175 0
-8 -15 0
-9 -16 0
-10 -17 0
-11 -18 0
-12 -19 0
-13 -20 0
-14 -21 0
-8 -99 0
-9 -100 0
-10 -101 0
-11 -102 0
-12 -103 0
-13 -104 0
-14 -105 0
-8 -141 0
-9 -142 0
-10 -143 0
-11 -144 0
-12 -145 0
-13 -146 0
-14 -147 0
-8 -120 0
-9 -121 0
-10 -122 0
-11 -123 0
-12 -124 0
-13 -125 0
-14 -126 0
-8 -197 0
-9 -198 0
-10 -199 0
-11 -200 0
-12 -201 0
-13 -202 0
-14 -203 0
-8 -134 0
-9 -135 0
-10 -136 0
-11 -137 0
-12 -138 0
-13 -139 0
-14 -140 0
-8 -176 0
-9 -177 0
-10 -178 0
-11 -179 0
-12 -180 0
-13 -181 0
-14 -182 0
-15 -43 0
-16 -44 0
-17 -45 0
-18 -46 0
-19 -47 0
-20 -48 0
-21 -49 0
-15 -232 0
-16 -233 0
-17 -234 0
-18 -235 0
-19 -236 0
-20 -237 0
-21 -238 0
-15 -92 0
-16 -93 0
-17 -94 0
-18 -95 0
-19 -96 0
-20 -97 0
-21 -98 0
-15 -183 0
-16 -184 0
-17 -185 0
-18 -186 0
-19 -187 0
-20 -188 0
-21 -189 0
-15 -64 0
-16 -65 0
-17 -66 0
-18 -67 0
-19 -68 0
-20 -69 0
-21 -70 0
-15 -106 0
-16 -107 0
-17 -108 0
-18 -109 0
-19 -110 0
-20 -111 0
-21 -112 0
-15 -169 0
-16 -170 0
-17 -171 0
-18 -172 0
-19 -173 0
-20 -174 0
-21 -175 0
-15 -113 0
-16 -114 0
-17 -115 0
-18 -116 0
-19 -117 0
-20 -118 0
-21 -119 0
-15 -190 0
-16 -191 0
-17 -192 0
-18 -193 0
-19 -194 0
-20 -195 0
-21 -196 0
-15 -99 0
-16 -100 0
-17 -101 0
-18 -102 0
-19 -103 0
-20 -104 0
-21 -105 0
-15 -141 0
-16 -142 0
-17 -143 0
-18 -144 0
-19 -145 0
-20 -146 0
-21 -147 0
-15 -134 0
-16 -135 0
-17 -136 0
-18 -137 0
-19 -138 0
-20 -139 0
-21 -140 0
-15 -127 0
-16 -128 0
-17 -129 0
-18 -130 0
-19 -131 0
-20 -132 0
-21 -133 0
-22 -36 0
-23 -37 0
-24 -38 0
-25 -39 0
-26 -40 0
-27 -41 0
-28 -42 0
-22 -232 0
-23 -233 0
-24 -234 0
-25 -235 0
-26 -236 0
-27 -237 0
-28 -238 0
-22 -162 0
-23 -163 0
-24 -164 0
-25 -165 0
-26 -166 0
-27 -167 0
-28 -168 0
-22 -155 0
-23 -156 0
-24 -157 0
-25 -158 0
-26 -159 0
-27 -160 0
-28 -161 0
-22 -225 0
-23 -226 0
-24 -227 0
-25 -228 0
-26 -229 0
-27 -230 0
-28 -231 0
-22 -57 0
-23 -58 0
-24 -59 0
-25 -60 0
-26 -61 0
-27 -62 0
-28 -63 0
-22 -204 0
-23 -205 0
-24 -206 0
-25 -207 0
-26 -208 0
-27 -209 0
-28 -210 0
-22 -78 0
-23 -79 0
-24 -80 0
-25 -81 0
-26 -82 0
-27 -83 0
-28 -84 0
-22 -71 0
-23 -72 0
-24 -73 0
-25 -74 0
-26 -75 0
-27 -76 0
-28 -77 0
-22 -50 0
-23 -51 0
-24 -52 0
-25 -53 0
-26 -54 0
-27 -55 0
-28 -56 0
-22 -29 0
-23 -30 0
-24 -31 0
-25 -32 0
-26 -33 0
-27 -34 0
-28 -35 0
-22 -134 0
-23 -135 0
-24 -136 0
-25 -137 0
-26 -138 0
-27 -139 0
-28 -140 0
-22 -218 0
-23 -219 0
-24 -220 0
-25 -221 0
-26 -222 0
-27 -223 0
-28 -224 0
-22 -127 0
-23 -128 0
-24 -129 0
-25 -130 0
-26 -131 0
-27 -132 0
-28 -133 0
-22 -176 0
-23 -177 0
-24 -178 0
-25 -179 0
-26 -180 0
-27 -181 0
-28 -182 0
-29 -148 0
-30 -149 0
-31 -150 0
-32 -151 0
-33 -152 0
-34 -153 0
-35 -154 0
-29 -43 0
-30 -44 0
-31 -45 0
-32 -46 0
-33 -47 0
-34 -48 0
-35 -49 0
-29 -36 0
-30 -37 0
-31 -38 0
-32 -39 0
-33 -40 0
-34 -41 0
-35 -42 0
-29 -232 0
-30 -233 0
-31 -234 0
-32 -235 0
-33 -236 0
-34 -237 0
-35 -238 0
-29 -155 0
-30 -156 0
-31 -157 0
-32 -158 0
-33 -159 0
-34 -160 0
-35 -161 0
-29 -204 0
-30 -205 0
-31 -206 0
-32 -207 0
-33 -208 0
-34 -209 0
-35 -210 0
-29 -113 0
-30 -114 0
-31 -115 0
-32 -116 0
-33 -117 0
-34 -118 0
-35 -119 0
-29 -190 0
-30 -191 0
-31 -192 0
-32 -193 0
-33 -194 0
-34 -195 0
-35 -196 0
-29 -78 0
-30 -79 0
-31 -80 0
-32 -81 0
-33 -82 0
-34 -83 0
-35 -84 0
-29 -71 0
-30 -72 0
-31 -73 0
-32 -74 0
-33 -75 0
-34 -76 0
-35 -77 0
-29 -50 0
-30 -51 0
-31 -52 0
-32 -53 0
-33 -54 0
-34 -55 0
-35 -56 0
-29 -134 0
-30 -135 0
-31 -136 0
-32 -137 0
-33 -138 0
-34 -139 0
-35 -140 0
-29 -218 0
-30 -219 0
-31 -220 0
-32 -221 0
-33 -222 0
-34 -223 0
-35 -224 0
-29 -127 0
-30 -128 0
-31 -129 0
-32 -130 0
-33 -131 0
-34 -132 0
-35 -133 0
-29 -176 0
-30 -177 0
-31 -178 0
-32 -179 0
-33 -180 0
-34 -181 0
-35 -182 0
-36 -148 0
-37 -149 0
-38 -150 0
-39 -151 0
-40 -152 0
-41 -153 0
-42 -154 0
-36 -211 0
-37 -212 0
-38 -213 0
-39 -214 0
-40 -215 0
-41 -216 0
-42 -217 0
-36 -85 0
-37 -86 0
-38 -87 0
-39 -88 0
-40 -89 0
-41 -90 0
-42 -91 0
-36 -43 0
-37 -44 0
-38 -45 0
-39 -46 0
-40 -47 0
-41 -48 0
-42 -49 0
-36 -232 0
-37 -233 0
-38 -234 0
-39 -235 0
-40 -236 0
-41 -237 0
-42 -238 0
-36 -218 0
-37 -219 0
-38 -220 0
-39 -221 0
-40 -222 0
-41 -223 0
-42 -224 0
-36 -50 0
-37 -51 0
-38 -52 0
-39 -53 0
-40 -54 0
-41 -55 0
-42 -56 0
-36 -204 0
-37 -205 0
-38 -206 0
-39 -207 0
-40 -208 0
-41 -209 0
-42 -210 0
-36 -106 0
-37 -107 0
-38 -108 0
-39 -109 0
-40 -110 0
-41 -111 0
-42 -112 0
-36 -113 0
-37 -114 0
-38 -115 0
-39 -116 0
-40 -117 0
-41 -118 0
-42 -119 0
-36 -190 0
-37 -191 0
-38 -192 0
-39 -193 0
-40 -194 0
-41 -195 0
-42 -196 0
-36 -78 0
-37 -79 0
-38 -80 0
-39 -81 0
-40 -82 0
-41 -83 0
-42 -84 0
-36 -71 0
-37 -72 0
-38 -73 0
-39 -74 0
-40 -75 0
-41 -76 0
-42 -77 0
-36 -127 0
-37 -128 0
-38 -129 0
-39 -130 0
-40 -131 0
-41 -132 0
-42 -133 0
-43 -148 0
-44 -149 0
-45 -150 0
-46 -151 0
-47 -152 0
-48 -153 0
-49 -154 0
-43 -211 0
-44 -212 0
-45 -213 0
-46 -214 0
-47 -215 0
-48 -216 0
-49 -217 0
-43 -85 0
-44 -86 0
-45 -87 0
-46 -88 0
-47 -89 0
-48 -90 0
-49 -91 0
-43 -232 0
-44 -233 0
-45 -234 0
-46 -235 0
-47 -236 0
-48 -237 0
-49 -238 0
-43 -106 0
-44 -107 0
-45 -108 0
-46 -109 0
-47 -110 0
-48 -111 0
-49 -112 0
-43 -190 0
-44 -191 0
-45 -192 0
-46 -193 0
-47 -194 0
-48 -195 0
-49 -196 0
-43 -169 0
-44 -170 0
-45 -171 0
-46 -172 0
-47 -173 0
-48 -174 0
-49 -175 0
-43 -113 0
-44 -114 0
-45 -115 0
-46 -116 0
-47 -117 0
-48 -118 0
-49 -119 0
-43 -50 0
-44 -51 0
-45 -52 0
-46 -53 0
-47 -54 0
-48 -55 0
-49 -56 0
-43 -218 0
-44 -219 0
-45 -220 0
-46 -221 0
-47 -222 0
-48 -223 0
-49 -224 0
-43 -127 0
-44 -128 0
-45 -129 0
-46 -130 0
-47 -131 0
-48 -132 0
-49 -133 0
-50 -148 0
-51 -149 0
-52 -150 0
-53 -151 0
-54 -152 0
-55 -153 0
-56 -154 0
-50 -85 0
-51 -86 0
-52 -87 0
-53 -88 0
-54 -89 0
-55 -90 0
-56 -91 0
-50 -232 0
-51 -233 0
-52 -234 0
-53 -235 0
-54 -236 0
-55 -237 0
-56 -238 0
-50 -155 0
-51 -156 0
-52 -157 0
-53 -158 0
-54 -159 0
-55 -160 0
-56 -161 0
-50 -225 0
-51 -226 0
-52 -227 0
-53 -228 0
-54 -229 0
-55 -230 0
-56 -231 0
-50 -57 0
-51 -58 0
-52 -59 0
-53 -60 0
-54 -61 0
-55 -62 0
-56 -63 0
-50 -204 0
-51 -205 0
-52 -206 0
-53 -207 0
-54 -208 0
-55 -209 0
-56 -210 0
-50 -78 0
-51 -79 0
-52 -80 0
-53 -81 0
-54 -82 0
-55 -83 0
-56 -84 0
-50 -71 0
-51 -72 0
-52 -73 0
-53 -74 0
-54 -75 0
-55 -76 0
-56 -77 0
-50 -218 0
-51 -219 0
-52 -220 0
-53 -221 0
-54 -222 0
-55 -223 0
-56 -224 0
-50 -127 0
-51 -128 0
-52 -129 0
-53 -130 0
-54 -131 0
-55 -132 0
-56 -133 0
-57 -148 0
-58 -149 0
-59 -150 0
-60 -151 0
-61 -152 0
-62 -153 0
-63 -154 0
-57 -211 0
-58 -212 0
-59 -213 0
-60 -214 0
-61 -215 0
-62 -216 0
-63 -217 0
-57 -85 0
-58 -86 0
-59 -87 0
-60 -88 0
-61 -89 0
-62 -90 0
-63 -91 0
-57 -162 0
-58 -163 0
-59 -164 0
-60 -165 0
-61 -166 0
-62 -167 0
-63 -168 0
-57 -155 0
-58 -156 0
-59 -157 0
-60 -158 0
-61 -159 0
-62 -160 0
-63 -161 0
-57 -225 0
-58 -226 0
-59 -227 0
-60 -228 0
-61 -229 0
-62 -230 0
-63 -231 0
-57 -204 0
-58 -205 0
-59 -206 0
-60 -207 0
-61 -208 0
-62 -209 0
-63 -210 0
-57 -120 0
-58 -121 0
-59 -122 0
-60 -123 0
-61 -124 0
-62 -125 0
-63 -126 0
-57 -71 0
-58 -72 0
-59 -73 0
-60 -74 0
-61 -75 0
-62 -76 0
-63 -77 0
-57 -197 0
-58 -198 0
-59 -199 0
-60 -200 0
-61 -201 0
-62 -202 0
-63 -203 0
-57 -169 0
-58 -170 0
-59 -171 0
-60 -172 0
-61 -173 0
-62 -174 0
-63 -175 0
-57 -141 0
-58 -142 0
-59 -143 0
-60 -144 0
-61 -145 0
-62 -146 0
-63 -147 0
-57 -218 0
-58 -219 0
-59 -220 0
-60 -221 0
-61 -222 0
-62 -223 0
-63 -224 0
-64 -92 0
-65 -93 0
-66 -94 0
-67 -95 0
-68 -96 0
-69 -97 0
-70 -98 0
-64 -183 0
-65 -184 0
-66 -185 0
-67 -186 0
-68 -187 0
-69 -188 0
-70 -189 0
-64 -162 0
-65 -163 0
-66 -164 0
-67 -165 0
-68 -166 0
-69 -167 0
-70 -168 0
-64 -134 0
-65 -135 0
-66 -136 0
-67 -137 0
-68 -138 0
-69 -139 0
-70 -140 0
-64 -176 0
-65 -177 0
-66 -178 0
-67 -179 0
-68 -180 0
-69 -181 0
-70 -182 0
-64 -155 0
-65 -156 0
-66 -157 0
-67 -158 0
-68 -159 0
-69 -160 0
-70 -161 0
-64 -225 0
-65 -226 0
-66 -227 0
-67 -228 0
-68 -229 0
-69 -230 0
-70 -231 0
-64 -113 0
-65 -114 0
-66 -115 0
-67 -116 0
-68 -117 0
-69 -118 0
-70 -119 0
-64 -78 0
-65 -79 0
-66 -80 0
-67 -81 0
-68 -82 0
-69 -83 0
-70 -84 0
-64 -99 0
-65 -100 0
-66 -101 0
-67 -102 0
-68 -103 0
-69 -104 0
-70 -105 0
-64 -141 0
-65 -142 0
-66 -143 0
-67 -144 0
-68 -145 0
-69 -146 0
-70 -147 0
-64 -120 0
-65 -121 0
-66 -122 0
-67 -123 0
-68 -124 0
-69 -125 0
-70 -126 0
-64 -127 0
-65 -128 0
-66 -129 0
-67 -130 0
-68 -131 0
-69 -132 0
-70 -133 0
-71 -85 0
-72 -86 0
-73 -87 0
-74 -88 0
-75 -89 0
-76 -90 0
-77 -91 0
-71 -162 0
-72 -163 0
-73 -164 0
-74 -165 0
-75 -166 0
-76 -167 0
-77 -168 0
-71 -155 0
-72 -156 0
-73 -157 0
-74 -158 0
-75 -159 0
-76 -160 0
-77 -161 0
-71 -225 0
-72 -226 0
-73 -227 0
-74 -228 0
-75 -229 0
-76 -230 0
-77 -231 0
-71 -204 0
-72 -205 0
-73 -206 0
-74 -207 0
-75 -208 0
-76 -209 0
-77 -210 0
-71 -78 0
-72 -79 0
-73 -80 0
-74 -81 0
-75 -82 0
-76 -83 0
-77 -84 0
-71 -120 0
-72 -121 0
-73 -122 0
-74 -123 0
-75 -124 0
-76 -125 0
-77 -126 0
-71 -197 0
-72 -198 0
-73 -199 0
-74 -200 0
-75 -201 0
-76 -202 0
-77 -203 0
-71 -218 0
-72 -219 0
-73 -220 0
-74 -221 0
-75 -222 0
-76 -223 0
-77 -224 0
-71 -176 0
-72 -177 0
-73 -178 0
-74 -179 0
-75 -180 0
-76 -181 0
-77 -182 0
-78 -232 0
-79 -233 0
-80 -234 0
-81 -235 0
-82 -236 0
-83 -237 0
-84 -238 0
-78 -183 0
-79 -184 0
-80 -185 0
-81 -186 0
-82 -187 0
-83 -188 0
-84 -189 0
-78 -162 0
-79 -163 0
-80 -164 0
-81 -165 0
-82 -166 0
-83 -167 0
-84 -168 0
-78 -155 0
-79 -156 0
-80 -157 0
-81 -158 0
-82 -159 0
-83 -160 0
-84 -161 0
-78 -225 0
-79 -226 0
-80 -227 0
-81 -228 0
-82 -229 0
-83 -230 0
-84 -231 0
-78 -113 0
-79 -114 0
-80 -115 0
-81 -116 0
-82 -117 0
-83 -118 0
-84 -119 0
-78 -127 0
-79 -128 0
-80 -129 0
-81 -130 0
-82 -131 0
-83 -132 0
-84 -133 0
-78 -134 0
-79 -135 0
-80 -136 0
-81 -137 0
-82 -138 0
-83 -139 0
-84 -140 0
-78 -176 0
-79 -177 0
-80 -178 0
-81 -179 0
-82 -180 0
-83 -181 0
-84 -182 0
-85 -148 0
-86 -149 0
-87 -150 0
-88 -151 0
-89 -152 0
-90 -153 0
-91 -154 0
-85 -211 0
-86 -212 0
-87 -213 0
-88 -214 0
-89 -215 0
-90 -216 0
-91 -217 0
-85 -204 0
-86 -205 0
-87 -206 0
-88 -207 0
-89 -208 0
-90 -209 0
-91 -210 0
-85 -197 0
-86 -198 0
-87 -199 0
-88 -200 0
-89 -201 0
-90 -202 0
-91 -203 0
-85 -218 0
-86 -219 0
-87 -220 0
-88 -221 0
-89 -222 0
-90 -223 0
-91 -224 0
-85 -225 0
-86 -226 0
-87 -227 0
-88 -228 0
-89 -229 0
-90 -230 0
-91 -231 0
-85 -106 0
-86 -107 0
-87 -108 0
-88 -109 0
-89 -110 0
-90 -111 0
-91 -112 0
-85 -169 0
-86 -170 0
-87 -171 0
-88 -172 0
-89 -173 0
-90 -174 0
-91 -175 0
-85 -141 0
-86 -142 0
-87 -143 0
-88 -144 0
-89 -145 0
-90 -146 0
-91 -147 0
-85 -120 0
-86 -121 0
-87 -122 0
-88 -123 0
-89 -124 0
-90 -125 0
-91 -126 0
-92 -183 0
-93 -184 0
-94 -185 0
-95 -186 0
-96 -187 0
-97 -188 0
-98 -189 0
-92 -99 0
-93 -100 0
-94 -101 0
-95 -102 0
-96 -103 0
-97 -104 0
-98 -105 0
-92 -162 0
-93 -163 0
-94 -164 0
-95 -165 0
-96 -166 0
-97 -167 0
-98 -168 0
-92 -169 0
-93 -170 0
-94 -171 0
-95 -172 0
-96 -173 0
-97 -174 0
-98 -175 0
-92 -113 0
-93 -114 0
-94 -115 0
-95 -116 0
-96 -117 0
-97 -118 0
-98 -119 0
-92 -190 0
-93 -191 0
-94 -192 0
-95 -193 0
-96 -194 0
-97 -195 0
-98 -196 0
-92 -141 0
-93 -142 0
-94 -143 0
-95 -144 0
-96 -145 0
-97 -146 0
-98 -147 0
-92 -120 0
-93 -121 0
-94 -122 0
-95 -123 0
-96 -124 0
-97 -125 0
-98 -126 0
-92 -134 0
-93 -135 0
-94 -136 0
-95 -137 0
-96 -138 0
-97 -139 0
-98 -140 0
-92 -176 0
-93 -177 0
-94 -178 0
-95 -179 0
-96 -180 0
-97 -181 0
-98 -182 0
-99 -211 0
-100 -212 0
-101 -213 0
-102 -214 0
-103 -215 0
-104 -216 0
-105 -217 0
-99 -183 0
-100 -184 0
-101 -185 0
-102 -186 0
-103 -187 0
-104 -188 0
-105 -189 0
-99 -162 0
-100 -163 0
-101 -164 0
-102 -165 0
-103 -166 0
-104 -167 0
-105 -168 0
-99 -106 0
-100 -107 0
-101 -108 0
-102 -109 0
-103 -110 0
-104 -111 0
-105 -112 0
-99 -169 0
-100 -170 0
-101 -171 0
-102 -172 0
-103 -173 0
-104 -174 0
-105 -175 0
-99 -113 0
-100 -114 0
-101 -115 0
-102 -116 0
-103 -117 0
-104 -118 0
-105 -119 0
-99 -190 0
-100 -191 0
-101 -192 0
-102 -193 0
-103 -194 0
-104 -195 0
-105 -196 0
-99 -141 0
-100 -142 0
-101 -143 0
-102 -144 0
-103 -145 0
-104 -146 0
-105 -147 0
-99 -120 0
-100 -121 0
-101 -122 0
-102 -123 0
-103 -124 0
-104 -125 0
-105 -126 0
-99 -197 0
-100 -198 0
-101 -199 0
-102 -200 0
-103 -201 0
-104 -202 0
-105 -203 0
-106 -148 0
-107 -149 0
-108 -150 0
-109 -151 0
-110 -152 0
-111 -153 0
-112 -154 0
-106 -211 0
-107 -212 0
-108 -213 0
-109 -214 0
-110 -215 0
-111 -216 0
-112 -217 0
-106 -232 0
-107 -233 0
-108 -234 0
-109 -235 0
-110 -236 0
-111 -237 0
-112 -238 0
-106 -169 0
-107 -170 0
-108 -171 0
-109 -172 0
-110 -173 0
-111 -174 0
-112 -175 0
-106 -190 0
-107 -191 0
-108 -192 0
-109 -193 0
-110 -194 0
-111 -195 0
-112 -196 0
-106 -113 0
-107 -114 0
-108 -115 0
-109 -116 0
-110 -117 0
-111 -118 0
-112 -119 0
-106 -141 0
-107 -142 0
-108 -143 0
-109 -144 0
-110 -145 0
-111 -146 0
-112 -147 0
-106 -197 0
-107 -198 0
-108 -199 0
-109 -200 0
-110 -201 0
-111 -202 0
-112 -203 0
-106 -218 0
-107 -219 0
-108 -220 0
-109 -221 0
-110 -222 0
-111 -223 0
-112 -224 0
-113 -232 0
-114 -233 0
-115 -234 0
-116 -235 0
-117 -236 0
-118 -237 0
-119 -238 0
-113 -183 0
-114 -184 0
-115 -185 0
-116 -186 0
-117 -187 0
-118 -188 0
-119 -189 0
-113 -190 0
-114 -191 0
-115 -192 0
-116 -193 0
-117 -194 0
-118 -195 0
-119 -196 0
-113 -134 0
-114 -135 0
-115 -136 0
-116 -137 0
-117 -138 0
-118 -139 0
-119 -140 0
-113 -127 0
-114 -128 0
-115 -129 0
-116 -130 0
-117 -131 0
-118 -132 0
-119 -133 0
-113 -176 0
-114 -177 0
-115 -178 0
-116 -179 0
-117 -180 0
-118 -181 0
-119 -182 0
-120 -211 0
-121 -212 0
-122 -213 0
-123 -214 0
-124 -215 0
-125 -216 0
-126 -217 0
-120 -162 0
-121 -163 0
-122 -164 0
-123 -165 0
-124 -166 0
-125 -167 0
-126 -168 0
-120 -155 0
-121 -156 0
-122 -157 0
-123 -158 0
-124 -159 0
-125 -160 0
-126 -161 0
-120 -225 0
-121 -226 0
-122 -227 0
-123 -228 0
-124 -229 0
-125 -230 0
-126 -231 0
-120 -204 0
-121 -205 0
-122 -206 0
-123 -207 0
-124 -208 0
-125 -209 0
-126 -210 0
-120 -169 0
-121 -170 0
-122 -171 0
-123 -172 0
-124 -173 0
-125 -174 0
-126 -175 0
-120 -141 0
-121 -142 0
-122 -143 0
-123 -144 0
-124 -145 0
-125 -146 0
-126 -147 0
-120 -197 0
-121 -198 0
-122 -199 0
-123 -200 0
-124 -201 0
-125 -202 0
-126 -203 0
-120 -176 0
-121 -177 0
-122 -178 0
-123 -179 0
-124 -180 0
-125 -181 0
-126 -182 0
-127 -232 0
-128 -233 0
-129 -234 0
-130 -235 0
-131 -236 0
-132 -237 0
-133 -238 0
-127 -183 0
-128 -184 0
-129 -185 0
-130 -186 0
-131 -187 0
-132 -188 0
-133 -189 0
-127 -155 0
-128 -156 0
-129 -157 0
-130 -158 0
-131 -159 0
-132 -160 0
-133 -161 0
-127 -190 0
-128 -191 0
-129 -192 0
-130 -193 0
-131 -194 0
-132 -195 0
-133 -196 0
-127 -134 0
-128 -135 0
-129 -136 0
-130 -137 0
-131 -138 0
-132 -139 0
-133 -140 0
-127 -176 0
-128 -177 0
-129 -178 0
-130 -179 0
-131 -180 0
-132 -181 0
-133 -182 0
-134 -232 0
-135 -233 0
-136 -234 0
-137 -235 0
-138 -236 0
-139 -237 0
-140 -238 0
-134 -183 0
-135 -184 0
-136 -185 0
-137 -186 0
-138 -187 0
-139 -188 0
-140 -189 0
-134 -162 0
-135 -163 0
-136 -164 0
-137 -165 0
-138 -166 0
-139 -167 0
-140 -168 0
-134 -155 0
-135 -156 0
-136 -157 0
-137 -158 0
-138 -159 0
-139 -160 0
-140 -161 0
-134 -190 0
-135 -191 0
-136 -192 0
-137 -193 0
-138 -194 0
-139 -195 0
-140 -196 0
-134 -176 0
-135 -177 0
-136 -178 0
-137 -179 0
-138 -180 0
-139 -181 0
-140 -182 0
-141 -211 0
-142 -212 0
-143 -213 0
-144 -214 0
-145 -215 0
-146 -216 0
-147 -217 0
-141 -162 0
-142 -163 0
-143 -164 0
-144 -165 0
-145 -166 0
-146 -167 0
-147 -168 0
-141 -225 0
-142 -226 0
-143 -227 0
-144 -228 0
-145 -229 0
-146 -230 0
-147 -231 0
-141 -169 0
-142 -170 0
-143 -171 0
-144 -172 0
-145 -173 0
-146 -174 0
-147 -175 0
-141 -197 0
-142 -198 0
-143 -199 0
-144 -200 0
-145 -201 0
-146 -202 0
-147 -203 0
-148 -211 0
-149 -212 0
-150 -213 0
-151 -214 0
-152 -215 0
-153 -216 0
-154 -217 0
-148 -218 0
-149 -219 0
-150 -220 0
-151 -221 0
-152 -222 0
-153 -223 0
-154 -224 0
-148 -232 0
-149 -233 0
-150 -234 0
-151 -235 0
-152 -236 0
-153 -237 0
-154 -238 0
-148 -204 0
-149 -205 0
-150 -206 0
-151 -207 0
-152 -208 0
-153 -209 0
-154 -210 0
-148 -169 0
-149 -170 0
-150 -171 0
-151 -172 0
-152 -173 0
-153 -174 0
-154 -175 0
-148 -190 0
-149 -191 0
-150 -192 0
-151 -193 0
-152 -194 0
-153 -195 0
-154 -196 0
-148 -197 0
-149 -198 0
-150 -199 0
-151 -200 0
-152 -201 0
-153 -202 0
-154 -203 0
-155 -162 0
-156 -163 0
-157 -164 0
-158 -165 0
-159 -166 0
-160 -167 0
-161 -168 0
-155 -225 0
-156 -226 0
-157 -227 0
-158 -228 0
-159 -229 0
-160 -230 0
-161 -231 0
-155 -176 0
-156 -177 0
-157 -178 0
-158 -179 0
-159 -180 0
-160 -181 0
-161 -182 0
-155 -204 0
-156 -205 0
-157 -206 0
-158 -207 0
-159 -208 0
-160 -209 0
-161 -210 0
-162 -183 0
-163 -184 0
-164 -185 0
-165 -186 0
-166 -187 0
-167 -188 0
-168 -189 0
-162 -225 0
-163 -226 0
-164 -227 0
-165 -228 0
-166 -229 0
-167 -230 0
-168 -231 0
-162 -176 0
-163 -177 0
-164 -178 0
-165 -179 0
-166 -180 0
-167 -181 0
-168 -182 0
-162 -197 0
-163 -198 0
-164 -199 0
-165 -200 0
-166 -201 0
-167 -202 0
-168 -203 0
-169 -211 0
-170 -212 0
-171 -213 0
-172 -214 0
-173 -215 0
-174 -216 0
-175 -217 0
-169 -197 0
-170 -198 0
-171 -199 0
-172 -200 0
-173 -201 0
-174 -202 0
-175 -203 0
-169 -190 0
-170 -191 0
-171 -192 0
-172 -193 0
-173 -194 0
-174 -195 0
-175 -196 0
-176 -183 0
-177 -184 0
-178 -185 0
-179 -186 0
-180 -187 0
-181 -188 0
-182 -189 0
-176 -225 0
-177 -226 0
-178 -227 0
-179 -228 0
-180 -229 0
-181 -230 0
-182 -231 0
-183 -232 0
-184 -233 0
-185 -234 0
-186 -235 0
-187 -236 0
-188 -237 0
-189 -238 0
-183 -190 0
-184 -191 0
-185 -192 0
-186 -193 0
-187 -194 0
-188 -195 0
-189 -196 0
-190 -211 0
-191 -212 0
-192 -213 0
-193 -214 0
-194 -215 0
-195 -216 0
-196 -217 0
-190 -232 0
-191 -233 0
-192 -234 0
-193 -235 0
-194 -236 0
-195 -237 0
-196 -238 0
-197 -211 0
-198 -212 0
-199 -213 0
-200 -214 0
-201 -215 0
-202 -216 0
-203 -217 0
-197 -225 0
-198 -226 0
-199 -227 0
-200 -228 0
-201 -229 0
-202 -230 0
-203 -231 0
-197 -204 0
-198 -205 0
-199 -206 0
-200 -207 0
-201 -208 0
-202 -209 0
-203 -210 0
-197 -218 0
-198 -219 0
-199 -220 0
-200 -221 0
-201 -222 0
-202 -223 0
-203 -224 0
-204 -211 0
-205 -212 0
-206 -213 0
-207 -214 0
-208 -215 0
-209 -216 0
-210 -217 0
-204 -225 0
-205 -226 0
-206 -227 0
-207 -228 0
-208 -229 0
-209 -230 0
-210 -231 0
-204 -218 0
-205 -219 0
-206 -220 0
-207 -221 0
-208 -222 0
-209 -223 0
-210 -224 0
-211 -218 0
-212 -219 0
-213 -220 0
-214 -221 0
-215 -222 0
-216 -223 0
-217 -224 0
-218 -232 0
-219 -233 0
-220 -234 0
-221 -235 0
-222 -236 0
-223 -237 0
-224 -238 0
1 2 3 4 5 6 7 0
-1 -2 0
-1 -3 0
-1 -4 0
-1 -5 0
-1 -6 0
-1 -7 0
-2 -3 0
-2 -4 0
-2 -5 0
-2 -6 0
-2 -7 0
-3 -4 0
-3 -5 0
-3 -6 0
-3 -7 0
-4 -5 0
-4 -6 0
-4 -7 0
-5 -6 0
-5 -7 0
-6 -7 0
8 9 10 11 12 13 14 0
-8 -9 0
-8 -10 0
-8 -11 0
-8 -12 0
-8 -13 0
-8 -14 0
-9 -10 0
-9 -11 0
-9 -12 0
-9 -13 0
-9 -14 0
-10 -11 0
-10 -12 0
-10 -13 0
-10 -14 0
-11 -12 0
-11 -13 0
-11 -14 0
-12 -13 0
-12 -14 0
-13 -14 0
15 16 17 18 19 20 21 0
-15 -16 0
-15 -17 0
-15 -18 0
-15 -19 0
-15 -20 0
-15 -21 0
-16 -17 0
-16 -18 0
-16 -19 0
-16 -20 0
-16 -21 0
-17 -18 0
-17 -19 0
-17 -20 0
-17 -21 0
-18 -19 0
-18 -20 0
-18 -21 0
-19 -20 0
-19 -21 0
-20 -21 0
22 23 24 25 26 27 28 0
-22 -23 0
-22 -24 0
-22 -25 0
-22 -26 0
-22 -27 0
-22 -28 0
-23 -24 0
-23 -25 0
-23 -26 0
-23 -27 0
-23 -28 0
-24 -25 0
-24 -26 0
-24 -27 0
-24 -28 0
-25 -26 0
-25 -27 0
-25 -28 0
-26 -27 0
-26 -28 0
-27 -28 0
29 30 31 32 33 34 35 0
-29 -30 0
-29 -31 0
-29 -32 0
-29 -33 0
-29 -34 0
-29 -35 0
-30 -31 0
-30 -32 0
-30 -33 0
-30 -34 0
-30 -35 0
-31 -32 0
-31 -33 0
-31 -34 0
-31 -35 0
-32 -33 0
-32 -34 0
-32 -35 0
-33 -34 0
-33 -35 0
-34 -35 0
36 37 38 39 40 41 42 0
-36 -37 0
-36 -38 0
-36 -39 0
-36 -40 0
-36 -41 0
-36 -42 0
-37 -38 0
-37 -39 0
-37 -40 0
-37 -41 0
-37 -42 0
-38 -39 0
-38 -40 0
-38 -41 0
-38 -42 0
-39 -40 0
-39 -41 0
-39 -42 0
-40 -41 0
-40 -42 0
-41 -42 0
43 44 45 46 47 48 49 0
-43 -44 0
-43 -45 0
-43 -46 0
-43 -47 0
-43 -48 0
-43 -49 0
-44 -45 0
-44 -46 0
-44 -47 0
-44 -48 0
-44 -49 0
-45 -46 0
-45 -47 0
-45 -48 0
-45 -49 0
-46 -47 0
-46 -48 0
-46 -49 0
-47 -48 0
-47 -49 0
-48 -49 0
50 51 52 53 54 55 56 0
-50 -51 0
-50 -52 0
-50 -53 0
-50 -54 0
-50 -55 0
-50 -56 0
-51 -52 0
-51 -53 0
-51 -54 0
-51 -55 0
-51 -56 0
-52 -53 0
-52 -54 0
-52 -55 0
-52 -56 0
-53 -54 0
-53 -55 0
-53 -56 0
-54 -55 0
-54 -56 0
-55 -56 0
57 58 59 60 61 62 63 0
-57 -58 0
-57 -59 0
-57 -60 0
-57 -61 0
-57 -62 0
-57 -63 0
-58 -59 0
-58 -60 0
-58 -61 0
-58 -62 0
-58 -63 0
-59 -60 0
-59 -61 0
-59 -62 0
-59 -63 0
-60 -61 0
-60 -62 0
-60 -63 0
-61 -62 0
-61 -63 0
-62 -63 0
64 65 66 67 68 69 70 0
-64 -65 0
-64 -66 0
-64 -67 0
-64 -68 0
-64 -69 0
-64 -70 0
-65 -66 0
-65 -67 0
-65 -68 0
-65 -69 0
-65 -70 0
-66 -67 0
-66 -68 0
-66 -69 0
-66 -70 0
-67 -68 0
-67 -69 0
-67 -70 0
-68 -69 0
-68 -70 0
-69 -70 0
71 72 73 74 75 76 77 0
-71 -72 0
-71 -73 0
-71 -74 0
-71 -75 0
-71 -76 0
-71 -77 0
-72 -73 0
-72 -74 0
-72 -75 0
-72 -76 0
-72 -77 0
-73 -74 0
-73 -75 0
-73 -76 0
-73 -77 0
-74 -75 0
-74 -76 0
-74 -77 0
-75 -76 0
-75 -77 0
-76 -77 0
78 79 80 81 82 83 84 0
-78 -79 0
-78 -80 0
-78 -81 0
-78 -82 0
-78 -83 0
-78 -84 0
-79 -80 0
-79 -81 0
-79 -82 0
-79 -83 0
-79 -84 0
-80 -81 0
-80 -82 0
-80 -83 0
-80 -84 0
-81 -82 0
-81 -83 0
-81 -84 0
-82 -83 0
-82 -84 0
-83 -84 0
85 86 87 88 89 90 91 0
-85 -86 0
-85 -87 0
-85 -88 0
-85 -89 0
-85 -90 0
-85 -91 0
-86 -87 0
-86 -88 0
-86 -89 0
-86 -90 0
-86 -91 0
-87 -88 0
-87 -89 0
-87 -90 0
-87 -91 0
-88 -89 0
-88 -90 0
-88 -91 0
-89 -90 0
-89 -91 0
-90 -91 0
92 93 94 95 96 97 98 0
-92 -93 0
-92 -94 0
-92 -95 0
-92 -96 0
-92 -97 0
-92 -98 0
-93 -94 0
-93 -95 0
-93 -96 0
-93 -97 0
-93 -98 0
-94 -95 0
-94 -96 0
-94 -97 0
-94 -98 0
-95 -96 0
-95 -97 0
-95 -98 0
-96 -97 0
-96 -98 0
-97 -98 0
99 100 101 102 103 104 105 0
-99 -100 0
-99 -101 0
-99 -102 0
-99 -103 0
-99 -104 0
-99 -105 0
-100 -101 0
-100 -102 0
-100 -103 0
-100 -104 0
-100 -105 0
-101 -102 0
-101 -103 0
-101 -104 0
-101 -105 0
-102 -103 0
-102 -104 0
-102 -105 0
-103 -104 0
-103 -105 0
-104 -105 0
106 107 108 109 110 111 112 0
-106 -107 0
-106 -108 0
-106 -109 0
-106 -110 0
-106 -111 0
-106 -112 0
-107 -108 0
-107 -109 0
-107 -110 0
-107 -111 0
-107 -112 0
-108 -109 0
-108 -110 0
-108 -111 0
-108 -112 0
-109 -110 0
-109 -111 0
-109 -112 0
-110 -111 0
-110 -112 0
-111 -112 0
113 114 115 116 117 118 119 0
-113 -114 0
-113 -115 0
-113 -116 0
-113 -117 0
-113 -118 0
-113 -119 0
-114 -115 0
-114 -116 0
-114 -117 0
-114 -118 0
-114 -119 0
-115 -116 0
-115 -117 0
-115 -118 0
-115 -119 0
-116 -117 0
-116 -118 0
-116 -119 0
-117 -118 0
-117 -119 0
-118 -119 0
120 121 122 123 124 125 126 0
-120 -121 0
-120 -122 0
-120 -123 0
-120 -124 0
-120 -125 0
-120 -126 0
-121 -122 0
-121 -123 0
-121 -124 0
-121 -125 0
-121 -126 0
-122 -123 0
-122 -124 0
-122 -125 0
-122 -126 0
-123 -124 0
-123 -125 0
-123 -126 0
-124 -125 0
-124 -126 0
-125 -126 0
127 128 129 130 131 132 133 0
-127 -128 0
-127 -129 0
-127 -130 0
-127 -131 0
-127 -132 0
-127 -133 0
-128 -129 0
-128 -130 0
-128 -131 0
-128 -132 0
-128 -133 0
-129 -130 0
-129 -131 0
-129 -132 0
-129 -133 0
-130 -131 0
-130 -132 0
-130 -133 0
-131 -132 0
-131 -133 0
-132 -133 0
134 135 136 137 138 139 140 0
-134 -135 0
-134 -136 0
-134 -137 0
-134 -138 0
-134 -139 0
-134 -140 0
-135 -136 0
-135 -137 0
-135 -138 0
-135 -139 0
-135 -140 0
-136 -137 0
-136 -138 0
-136 -139 0
-136 -140 0
-137 -138 0
-137 -139 0
-137 -140 0
-138 -139 0
-138 -140 0
-139 -140 0
141 142 143 144 145 146 147 0
-141 -142 0
-141 -143 0
-141 -144 0
-141 -145 0
-141 -146 0
-141 -147 0
-142 -143 0
-142 -144 0
-142 -145 0
-142 -146 0
-142 -147 0
-143 -144 0
-143 -145 0
-143 -146 0
-143 -147 0
-144 -145 0
-144 -146 0
-144 -147 0
-145 -146 0
-145 -147 0
-146 -147 0
148 149 150 151 152 153 154 0
-148 -149 0
-148 -150 0
-148 -151 0
-148 -152 0
-148 -153 0
-148 -154 0
-149 -150 0
-149 -151 0
-149 -152 0
-149 -153 0
-149 -154 0
-150 -151 0
-150 -152 0
-150 -153 0
-150 -154 0
-151 -152 0
-151 -153 0
-151 -154 0
-152 -153 0
-152 -154 0
-153 -154 0
155 156 157 158 159 160 161 0
-155 -156 0
-155 -157 0
-155 -158 0
-155 -159 0
-155 -160 0
-155 -161 0
-156 -157 0
-156 -158 0
-156 -159 0
-156 -160 0
-156 -161 0
-157 -158 0
-157 -159 0
-157 -160 0
-157 -161 0
-158 -159 0
-158 -160 0
-158 -161 0
-159 -160 0
-159 -161 0
-160 -161 0
162 163 164 165 166 167 168 0
-162 -163 0
-162 -164 0
-162 -165 0
-162 -166 0
-162 -167 0
-162 -168 0
-163 -164 0
-163 -165 0
-163 -166 0
-163 -167 0
-163 -168 0
-164 -165 0
-164 -166 0
-164 -167 0
-164 -168 0
-165 -166 0
-165 -167 0
-165 -168 0
-166 -167 0
-166 -168 0
-167 -168 0
169 170 171 172 173 174 175 0
-169 -170 0
-169 -171 0
-169 -172 0
-169 -173 0
-169 -174 0
-169 -175 0
-170 -171 0
-170 -172 0
-170 -173 0
-170 -174 0
-170 -175 0
-171 -172 0
-171 -173 0
-171 -174 0
-171 -175 0
-172 -173 0
-172 -174 0
-172 -175 0
-173 -174 0
-173 -175 0
-174 -175 0
176 177 178 179 180 181 182 0
-176 -177 0
-176 -178 0
-176 -179 0
-176 -180 0
-176 -181 0
-176 -182 0
-177 -178 0
-177 -179 0
-177 -180 0
-177 -181 0
-177 -182 0
-178 -179 0
-178 -180 0
-178 -181 0
-178 -182 0
-179 -180 0
-179 -181 0
-179 -182 0
-180 -181 0
-180 -182 0
-181 -182 0
183 184 185 186 187 188 189 0
-183 -184 0
-183 -185 0
-183 -186 0
-183 -187 0
-183 -188 0
-183 -189 0
-184 -185 0
-184 -186 0
-184 -187 0
-184 -188 0
-184 -189 0
-185 -186 0
-185 -187 0
-185 -188 0
-185 -189 0
-186 -187 0
-186 -188 0
-186 -189 0
-187 -188 0
-187 -189 0
-188 -189 0
190 191 192 193 194 195 196 0
-190 -191 0
-190 -192 0
-190 -193 0
-190 -194 0
-190 -195 0
-190 -196 0
-191 -192 0
-191 -193 0
-191 -194 0
-191 -195 0
-191 -196 0
-192 -193 0
-192 -194 0
-192 -195 0
-192 -196 0
-193 -194 0
-193 -195 0
-193 -196 0
-194 -195 0
-194 -196 0
-195 -196 0
197 198 199 200 201 202 203 0
-197 -198 0
-197 -199 0
-197 -200 0
-197 -201 0
-197 -202 0
-197 -203 0
-198 -199 0
-198 -200 0
-198 -201 0
-198 -202 0
-198 -203 0
-199 -200 0
-199 -201 0
-199 -202 0
-199 -203 0
-200 -201 0
-200 -202 0
-200 -203 0
-201 -202 0
-201 -203 0
-202 -203 0
204 205 206 207 208 209 210 0
-204 -205 0
-204 -206 0
-204 -207 0
-204 -208 0
-204 -209 0
-204 -210 0
-205 -206 0
-205 -207 0
-205 -208 0
-205 -209 0
-205 -210 0
-206 -207 0
-206 -208 0
-206 -209 0
-206 -210 0
-207 -208 0
-207 -209 0
-207 -210 0
-208 -209 0
-208 -210 0
-209 -210 0
211 212 213 214 215 216 217 0
-211 -212 0
-211 -213 0
-211 -214 0
-211 -215 0
-211 -216 0
-211 -217 0
-212 -213 0
-212 -214 0
-212 -215 0
-212 -216 0
-212 -217 0
-213 -214 0
-213 -215 0
-213 -216 0
-213 -217 0
-214 -215 0
-214 -216 0
-214 -217 0
-215 -216 0
-215 -217 0
-216 -217 0
218 219 220 221 222 223 224 0
-218 -219 0
-218 -220 0
-218 -221 0
-218 -222 0
-218 -223 0
-218 -224 0
-219 -220 0
-219 -221 0
-219 -222 0
-219 -223 0
-219 -224 0
-220 -221 0
-220 -222 0
-220 -223 0
-220 -224 0
-221 -222 0
-221 -223 0
-221 -224 0
-222 -223 0
-222 -224 0
-223 -224 0
225 226 227 228 229 230 231 0
-225 -226 0
-225 -227 0
-225 -228 0
-225 -229 0
-225 -230 0
-225 -231 0
-226 -227 0
-226 -228 0
-226 -229 0
-226 -230 0
-226 -231 0
-227 -228 0
-227 -229 0
-227 -230 0
-227 -231 0
-228 -229 0
-228 -230 0
-228 -231 0
-229 -230 0
-229 -231 0
-230 -231 0
232 233 234 235 236 237 238 0
-232 -233 0
-232 -234 0
-232 -235 0
-232 -236 0
-232 -237 0
-232 -238 0
-233 -234 0
-233 -235 0
-233 -236 0
-233 -237 0
-233 -238 0
-234 -235 0
-234 -236 0
-234 -237 0
-234 -238 0
-235 -236 0
-235 -237 0
-235 -238 0
-236 -237 0
-236 -238 0
-237 -238 0
